networks/zoo_50_240/zoo_50_240-lower.sol
<?xml version = "1.0" encoding="UTF-8" standalone="yes"?>
<CPLEXSolution version="1.2">
 <header
   problemName="networks/zoo_50_240/zoo_50_240-lower.lp"
   solutionName="incumbent"
   solutionIndex="-1"
   objectiveValue="28"
   solutionTypeValue="3"
   solutionTypeString="primal"
   solutionStatusValue="101"
   solutionStatusString="integer optimal solution"
   solutionMethodString="mip"
   primalFeasible="1"
   dualFeasible="1"
   MIPNodes="0"
   MIPIterations="423"
   writeLevel="3"/>
 <quality
   epInt="1.0000000000000001e-05"
   epRHS="9.9999999999999995e-07"
   maxIntInfeas="0"
   maxPrimalInfeas="0"
   maxX="1"
   maxSlack="1"/>
 <variables>
  <variable name="Y(7,15)" index="308" value="1"/>
  <variable name="Y(21,1)" index="980" value="1"/>
  <variable name="Y(28,10)" index="1332" value="1"/>
  <variable name="Y(29,11)" index="1382" value="1"/>
  <variable name="Y(30,13)" index="1433" value="1"/>
  <variable name="Y(39,22)" index="1883" value="1"/>
  <variable name="Y(50,17)" index="2417" value="1"/>
  <variable name="Y(64,24)" index="3110" value="1"/>
  <variable name="Y(80,20)" index="3890" value="1"/>
  <variable name="Y(117,18)" index="5701" value="1"/>
  <variable name="Y(120,21)" index="5851" value="1"/>
  <variable name="Y(126,7)" index="6131" value="1"/>
  <variable name="Y(129,11)" index="6282" value="1"/>
  <variable name="Y(131,2)" index="6371" value="1"/>
  <variable name="Y(134,17)" index="6533" value="1"/>
  <variable name="Y(139,3)" index="6764" value="1"/>
  <variable name="Y(145,4)" index="7059" value="1"/>
  <variable name="Y(156,18)" index="7612" value="1"/>
  <variable name="Y(161,6)" index="7845" value="1"/>
  <variable name="Y(165,25)" index="8060" value="1"/>
  <variable name="Y(166,21)" index="8105" value="1"/>
  <variable name="Y(177,23)" index="8646" value="1"/>
  <variable name="Y(185,8)" index="9023" value="1"/>
  <variable name="Y(188,14)" index="9176" value="1"/>
  <variable name="Y(208,12)" index="10154" value="1"/>
  <variable name="Y(212,16)" index="10354" value="1"/>
  <variable name="Y(225,5)" index="10980" value="1"/>
  <variable name="Y(235,19)" index="11484" value="1"/>
  <variable name="X(1,4,7)" index="11766" value="1"/>
  <variable name="X(1,26,21)" index="12020" value="1"/>
  <variable name="X(2,3,139)" index="12378" value="1"/>
  <variable name="X(2,4,145)" index="12624" value="1"/>
  <variable name="X(2,7,177)" index="12896" value="1"/>
  <variable name="X(2,11,29)" index="12988" value="1"/>
  <variable name="X(2,12,208)" index="13407" value="1"/>
  <variable name="X(2,15,7)" index="13446" value="1"/>
  <variable name="X(2,22,39)" index="13718" value="1"/>
  <variable name="X(2,27,131)" index="14050" value="1"/>
  <variable name="X(3,2,39)" index="14198" value="1"/>
  <variable name="X(3,4,21)" index="14420" value="1"/>
  <variable name="X(3,14,188)" index="14827" value="1"/>
  <variable name="X(3,17,50)" index="14929" value="1"/>
  <variable name="X(3,28,139)" index="15258" value="1"/>
  <variable name="X(4,1,21)" index="15380" value="1"/>
  <variable name="X(4,2,7)" index="15606" value="1"/>
  <variable name="X(4,3,50)" index="15889" value="1"/>
  <variable name="X(4,10,28)" index="16107" value="1"/>
  <variable name="X(4,29,145)" index="16464" value="1"/>
  <variable name="X(5,25,64)" index="16623" value="1"/>
  <variable name="X(5,30,225)" index="17024" value="1"/>
  <variable name="X(6,7,126)" index="17165" value="1"/>
  <variable name="X(6,21,120)" index="17399" value="1"/>
  <variable name="X(6,25,80)" index="17599" value="1"/>
  <variable name="X(6,31,161)" index="17920" value="1"/>
  <variable name="X(7,2,145)" index="18144" value="1"/>
  <variable name="X(7,6,120)" index="18359" value="1"/>
  <variable name="X(7,8,177)" index="18656" value="1"/>
  <variable name="X(7,25,117)" index="18836" value="1"/>
  <variable name="X(7,32,126)" index="19085" value="1"/>
  <variable name="X(8,7,120)" index="19319" value="1"/>
  <variable name="X(8,23,177)" index="19616" value="1"/>
  <variable name="X(8,33,185)" index="19864" value="1"/>
  <variable name="X(9,6,126)" index="20045" value="1"/>
  <variable name="X(10,35,28)" index="20187" value="1"/>
  <variable name="X(11,2,129)" index="20528" value="1"/>
  <variable name="X(11,36,29)" index="20668" value="1"/>
  <variable name="X(12,2,131)" index="21010" value="1"/>
  <variable name="X(12,37,208)" index="21327" value="1"/>
  <variable name="X(13,17,134)" index="21493" value="1"/>
  <variable name="X(13,38,30)" index="21629" value="1"/>
  <variable name="X(14,39,188)" index="22027" value="1"/>
  <variable name="X(15,2,139)" index="22218" value="1"/>
  <variable name="X(15,40,7)" index="22326" value="1"/>
  <variable name="X(16,25,145)" index="22704" value="1"/>
  <variable name="X(16,41,212)" index="23011" value="1"/>
  <variable name="X(17,3,134)" index="23173" value="1"/>
  <variable name="X(17,13,30)" index="23309" value="1"/>
  <variable name="X(17,42,50)" index="23569" value="1"/>
  <variable name="X(18,25,156)" index="23915" value="1"/>
  <variable name="X(18,43,117)" index="24116" value="1"/>
  <variable name="X(19,25,161)" index="24400" value="1"/>
  <variable name="X(19,44,235)" index="24714" value="1"/>
  <variable name="X(20,25,165)" index="24884" value="1"/>
  <variable name="X(20,45,80)" index="25039" value="1"/>
  <variable name="X(21,6,166)" index="25365" value="1"/>
  <variable name="X(21,46,120)" index="25559" value="1"/>
  <variable name="X(22,2,177)" index="25856" value="1"/>
  <variable name="X(22,47,39)" index="25958" value="1"/>
  <variable name="X(23,8,185)" index="26344" value="1"/>
  <variable name="X(23,48,177)" index="26576" value="1"/>
  <variable name="X(24,25,212)" index="26851" value="1"/>
  <variable name="X(24,49,64)" index="26943" value="1"/>
  <variable name="X(25,5,225)" index="27344" value="1"/>
  <variable name="X(25,6,161)" index="27520" value="1"/>
  <variable name="X(25,7,145)" index="27744" value="1"/>
  <variable name="X(25,16,212)" index="28051" value="1"/>
  <variable name="X(25,18,117)" index="28196" value="1"/>
  <variable name="X(25,19,235)" index="28554" value="1"/>
  <variable name="X(25,20,80)" index="28639" value="1"/>
  <variable name="X(25,24,64)" index="28863" value="1"/>
  <variable name="X(25,50,165)" index="29204" value="1"/>
 </variables>
</CPLEXSolution>
